NAME          ClpDefau
ROWS
 N  OBJROW
 E  R0000000
 E  R0000001
 E  R0000002
 E  R0000003
 E  R0000004
 E  R0000005
 E  R0000006
 E  R0000007
 L  R0000008
 L  R0000009
 L  R0000010
 L  R0000011
 L  R0000012
 N  R0000013
 N  R0000014
 N  R0000015
 L  R0000016
 L  R0000017
 L  R0000018
 L  R0000019
COLUMNS
    C0000000  OBJROW    1.             R0000000  1.          
    C0000000  R0000008  1.          
    C0000001  OBJROW    1.             R0000004  1.          
    C0000001  R0000008  1.          
    C0000002  OBJROW    1.             R0000004  1.          
    C0000002  R0000010  1.          
    C0000003  R0000000   -1.           R0000002  1.          
    C0000003  R0000016  1.          
    C0000004  R0000000   -1.           R0000006  1.          
    C0000004  R0000017  1.          
    C0000005  R0000002  1.             R0000004   -1.        
    C0000005  R0000018  1.          
    C0000006  R0000004   -1.           R0000006  1.          
    C0000006  R0000019  1.          
    C0000007  R0000002   -1.           R0000012  1.          
    C0000008  R0000002   -1.           R0000014  1.          
    C0000009  R0000006   -1.           R0000012  1.          
    C0000010  R0000006   -1.           R0000014  1.          
    C0000011  OBJROW    1.             R0000001  1.          
    C0000011  R0000009  1.          
    C0000012  OBJROW    1.             R0000005  1.          
    C0000012  R0000009  1.          
    C0000013  OBJROW    1.             R0000005  1.          
    C0000013  R0000011  1.          
    C0000014  R0000001   -1.           R0000003  1.          
    C0000014  R0000016  1.          
    C0000015  R0000001   -1.           R0000007  1.          
    C0000015  R0000017  1.          
    C0000016  R0000003  1.             R0000005   -1.        
    C0000016  R0000018  1.          
    C0000017  R0000005   -1.           R0000007  1.          
    C0000017  R0000019  1.          
    C0000018  R0000003   -1.           R0000013  1.          
    C0000019  R0000003   -1.           R0000015  1.          
    C0000020  R0000007   -1.           R0000013  1.          
    C0000021  R0000007   -1.           R0000015  1.          
RHS
    RHS       R0000008  8.             R0000011  8.          
    RHS       R0000016  3.             R0000017  3.          
    RHS       R0000018  3.             R0000019  3.          
ENDATA
